* ENCODING=ISO-8859-1
NAME          CPLEX
ROWS
 N  obj1    
 G  c1      
 G  c2      
 G  c3      
 G  c4      
 G  c5      
 G  c6      
 G  c7      
 G  c8      
 G  c9      
 G  c10     
 G  c11     
 G  c12     
 G  c13     
 G  c14     
 G  c15     
 G  c16     
 G  c17     
 G  c18     
 G  c19     
 G  c20     
 G  c21     
 G  c22     
 G  c23     
 G  c24     
 G  c25     
 G  c26     
 G  c27     
 G  c28     
 G  c29     
 G  c30     
 G  c31     
 G  c32     
 G  c33     
 G  c34     
 G  c35     
 G  c36     
 G  c37     
 G  c38     
 G  c39     
 G  c40     
 G  c41     
 G  c42     
 G  c43     
 G  c44     
 G  c45     
 G  c46     
 G  c47     
 G  c48     
 G  c49     
 G  c50     
 G  c51     
 G  c52     
 G  c53     
 G  c54     
 G  c55     
 G  c56     
 G  c57     
 G  c58     
 G  c59     
 G  c60     
 G  c61     
 G  c62     
 G  c63     
 G  c64     
 G  c65     
 G  c66     
 G  c67     
 G  c68     
 G  c69     
 G  c70     
COLUMNS
    MARK0000  'MARKER'                 'INTORG'
    x1        obj1                            1
    x1        c1                            692
    x1        c22                           141
    x1        c23                           921
    x1        c27                           122
    x1        c28                           925
    x1        c43                           417
    x1        c44                           718
    x1        c49                           520
    x1        c55                           363
    x2        obj1                            1
    x2        c12                           590
    x2        c20                           266
    x2        c21                           642
    x2        c23                           588
    x2        c33                           800
    x2        c39                           598
    x2        c50                           203
    x2        c59                           421
    x2        c65                           350
    x3        obj1                            1
    x3        c7                            131
    x3        c10                           396
    x3        c11                           369
    x3        c24                           551
    x3        c36                           195
    x3        c42                           107
    x3        c53                           776
    x3        c55                           925
    x3        c61                           930
    x4        obj1                            1
    x4        c4                            941
    x4        c13                           143
    x4        c23                           524
    x4        c25                           625
    x4        c27                           940
    x4        c32                           284
    x4        c41                           340
    x4        c63                           341
    x5        obj1                            1
    x5        c17                           521
    x5        c42                           453
    x5        c47                           607
    x5        c52                           162
    x5        c53                           909
    x6        obj1                            1
    x6        c2                            720
    x6        c4                            811
    x6        c14                           622
    x6        c25                           390
    x6        c33                           899
    x6        c38                           321
    x6        c40                           729
    x6        c54                           430
    x6        c55                           614
    x6        c69                           569
    x7        obj1                            1
    x7        c13                           475
    x7        c17                           932
    x7        c36                           592
    x7        c56                           456
    x7        c57                           368
    x8        obj1                            1
    x8        c8                            575
    x8        c20                           680
    x8        c25                           664
    x8        c26                           209
    x8        c38                           841
    x8        c49                           442
    x9        obj1                            1
    x9        c24                           362
    x9        c36                           218
    x9        c37                           602
    x9        c38                           894
    x9        c56                           336
    x9        c62                           670
    x10       obj1                            1
    x10       c7                            388
    x10       c21                           770
    x10       c40                           623
    x10       c59                           915
    x10       c70                           792
    x11       obj1                            1
    x11       c10                           837
    x11       c14                           155
    x11       c24                           352
    x11       c35                           509
    x11       c39                           111
    x11       c43                           206
    x12       obj1                            1
    x12       c25                           474
    x12       c31                           746
    x12       c50                           846
    x12       c52                           567
    x12       c53                           531
    x12       c67                           132
    x13       obj1                            1
    x13       c21                           655
    x13       c24                           384
    x13       c27                           410
    x13       c30                           844
    x13       c32                           751
    x13       c51                           807
    x13       c56                           475
    x13       c60                           910
    x14       obj1                            1
    x14       c17                           737
    x14       c31                           922
    x14       c32                           511
    x14       c48                           853
    x14       c64                           421
    x14       c65                           625
    x14       c68                           462
    x15       obj1                            1
    x15       c13                           947
    x15       c33                           307
    x15       c46                           408
    x15       c53                           633
    x15       c57                           644
    x15       c62                           681
    x15       c64                           817
    x16       obj1                            1
    x16       c9                            676
    x16       c10                           534
    x16       c11                           961
    x16       c13                           661
    x16       c16                           554
    x16       c34                           167
    x16       c35                           588
    x16       c38                           868
    x16       c51                           923
    x16       c58                           315
    x16       c59                           478
    x16       c66                           298
    x16       c70                           278
    x17       obj1                            1
    x17       c2                            579
    x17       c4                            225
    x17       c10                           526
    x17       c21                           418
    x17       c24                           401
    x17       c26                           591
    x17       c38                           627
    x17       c49                           929
    x17       c50                           956
    x17       c54                           842
    x17       c62                           676
    x17       c69                           284
    x18       obj1                            1
    x18       c7                            340
    x18       c10                           594
    x18       c11                           676
    x18       c34                           618
    x18       c37                           420
    x18       c43                           122
    x18       c45                           120
    x19       obj1                            1
    x19       c14                           931
    x19       c36                           562
    x19       c45                           508
    x19       c51                           722
    x19       c60                           186
    x20       obj1                            1
    x20       c6                            934
    x20       c7                            998
    x20       c13                           904
    x20       c16                           360
    x20       c39                           112
    x20       c43                           488
    x20       c64                           710
    x20       c69                           201
    x21       obj1                            1
    x21       c15                           364
    x21       c17                           192
    x21       c30                           945
    x21       c32                           148
    x21       c37                           154
    x21       c38                           782
    x21       c42                           162
    x21       c61                           714
    x21       c64                           351
    x22       obj1                            1
    x22       c4                            244
    x22       c29                           429
    x22       c37                           505
    x22       c39                           271
    x22       c50                           784
    x22       c52                           410
    x22       c67                           970
    x22       c68                           384
    x23       obj1                            1
    x23       c6                            820
    x23       c8                            686
    x23       c11                           659
    x23       c14                           780
    x23       c22                           929
    x23       c66                           984
    x23       c69                           617
    x24       obj1                            1
    x24       c8                            630
    x24       c10                           445
    x24       c19                           623
    x24       c22                           813
    x24       c44                           272
    x25       obj1                            1
    x25       c3                            730
    x25       c5                            597
    x25       c7                            783
    x25       c17                           838
    x25       c34                           104
    x25       c37                           372
    x25       c46                           322
    x25       c47                           137
    x25       c50                           337
    x25       c57                           606
    x26       obj1                            1
    x26       c12                           781
    x26       c13                           179
    x26       c37                           622
    x26       c53                           838
    x26       c67                           168
    x27       obj1                            1
    x27       c7                            445
    x27       c34                           809
    x27       c42                           931
    x27       c64                           691
    x28       obj1                            1
    x28       c6                            494
    x28       c19                           966
    x28       c23                           827
    x28       c24                           143
    x28       c29                           538
    x28       c37                           816
    x28       c45                           610
    x28       c51                           830
    x28       c61                           376
    x28       c62                           892
    x29       obj1                            1
    x29       c44                           315
    x29       c49                           104
    x29       c59                           915
    x29       c62                           625
    x30       obj1                            1
    x30       c6                            247
    x30       c20                           719
    x30       c26                           376
    x30       c27                           787
    x30       c32                           605
    x30       c35                           843
    x30       c37                           299
    x30       c52                           288
    x30       c57                           891
    x30       c67                           118
    x30       c70                           335
    x31       obj1                            1
    x31       c15                           553
    x31       c18                           688
    x31       c19                           809
    x31       c29                           686
    x32       obj1                            1
    x32       c2                            892
    x32       c3                            975
    x32       c5                            717
    x32       c8                            773
    x32       c17                           170
    x32       c23                           342
    x32       c27                           530
    x32       c28                           689
    x32       c35                           857
    x32       c61                           946
    x33       obj1                            1
    x33       c1                            971
    x33       c5                            774
    x33       c14                           147
    x33       c23                           636
    x33       c29                           686
    x33       c36                           679
    x33       c37                           825
    x34       obj1                            1
    x34       c2                            548
    x34       c8                            263
    x34       c9                            295
    x34       c13                           855
    x34       c51                           510
    x34       c53                           730
    x34       c60                           200
    x34       c61                           556
    x35       obj1                            1
    x35       c5                            645
    x35       c11                           379
    x35       c18                           985
    x35       c33                           383
    x35       c36                           313
    x35       c45                           995
    x35       c48                           830
    x35       c59                           398
    x36       obj1                            1
    x36       c1                            500
    x36       c9                            314
    x36       c25                           754
    x36       c28                           134
    x36       c32                           699
    x36       c35                           403
    x37       obj1                            1
    x37       c25                           241
    x37       c40                           611
    x37       c41                           514
    x37       c47                           897
    x37       c48                           988
    x37       c52                           781
    x37       c64                           738
    x38       obj1                            1
    x38       c15                           783
    x38       c31                           569
    x38       c33                           196
    x38       c39                           124
    x38       c64                           794
    x38       c66                           252
    x39       obj1                            1
    x39       c1                            445
    x39       c12                           378
    x39       c15                           182
    x39       c43                           174
    x39       c50                           683
    x39       c58                           202
    x39       c61                           941
    x40       obj1                            1
    x40       c35                           697
    x40       c38                           732
    x40       c45                           544
    x40       c55                           535
    x40       c61                           455
    x40       c69                           628
    x41       obj1                            1
    x41       c3                            964
    x41       c40                           303
    x41       c52                           657
    x42       obj1                            1
    x42       c24                           789
    x42       c26                           452
    x42       c39                           763
    x42       c47                           109
    x42       c50                           526
    x42       c59                           744
    x42       c63                           377
    x43       obj1                            1
    x43       c24                           663
    x43       c50                           687
    x43       c60                           854
    x43       c65                           394
    x43       c68                           912
    x44       obj1                            1
    x44       c16                           854
    x44       c28                           928
    x44       c60                           514
    x45       obj1                            1
    x45       c33                           515
    x45       c48                           160
    x45       c50                           602
    x45       c68                           529
    x46       obj1                            1
    x46       c3                            387
    x46       c11                           381
    x46       c17                           803
    x46       c27                           891
    x46       c32                           358
    x46       c35                           271
    x46       c41                           683
    x46       c44                           875
    x46       c47                           941
    x46       c55                           279
    x46       c65                           989
    x47       obj1                            1
    x47       c3                            907
    x47       c16                           387
    x47       c18                           622
    x47       c58                           910
    x47       c62                           999
    x47       c69                           743
    x48       obj1                            1
    x48       c3                            276
    x48       c7                            725
    x48       c32                           161
    x48       c35                           123
    x48       c45                           811
    x48       c65                           460
    x49       obj1                            1
    x49       c3                            405
    x49       c38                           701
    x49       c39                           969
    x49       c68                           105
    x50       obj1                            1
    x50       c4                            709
    x50       c7                            290
    x50       c10                           924
    x50       c17                           928
    x50       c40                           129
    x50       c41                           860
    x50       c43                           271
    x50       c47                           960
    x50       c61                           447
    x50       c69                           105
    x51       obj1                            1
    x51       c12                           758
    x51       c14                           170
    x51       c19                           849
    x51       c22                           421
    x51       c39                           524
    x51       c41                           915
    x51       c49                           500
    x51       c58                           880
    x51       c65                           171
    x52       obj1                            1
    x52       c3                            494
    x52       c6                            544
    x52       c13                           261
    x52       c30                           770
    x52       c40                           554
    x52       c58                           965
    x52       c66                           446
    x53       obj1                            1
    x53       c22                           268
    x53       c31                           368
    x53       c37                           402
    x53       c41                           557
    x53       c54                           804
    x53       c61                           286
    x53       c62                           918
    x53       c69                           576
    x54       obj1                            1
    x54       c1                            750
    x54       c25                           409
    x54       c46                           532
    x55       obj1                            1
    x55       c4                            468
    x55       c54                           355
    x55       c58                           494
    x56       obj1                            1
    x56       c7                            369
    x56       c24                           377
    x56       c63                           130
    x57       obj1                            1
    x57       c23                           395
    x57       c41                           788
    x57       c46                           707
    x57       c59                           153
    x57       c60                           787
    x57       c67                           768
    x57       c68                           447
    x58       obj1                            1
    x58       c17                           650
    x58       c42                           175
    x59       obj1                            1
    x59       c4                            828
    x59       c40                           581
    x59       c69                           858
    x60       obj1                            1
    x60       c20                           535
    x60       c27                           459
    x60       c29                           838
    x60       c43                           931
    x60       c64                           193
    x61       obj1                            1
    x61       c62                           569
    x62       obj1                            1
    x62       c1                            521
    x62       c6                            305
    x62       c9                            712
    x62       c23                           969
    x62       c31                           150
    x62       c33                           673
    x62       c52                           570
    x62       c56                           419
    x62       c57                           875
    x62       c61                           261
    x62       c64                           579
    x63       obj1                            1
    x63       c44                           495
    x63       c49                           362
    x63       c62                           311
    x64       obj1                            1
    x64       c2                            108
    x64       c5                            220
    x64       c15                           739
    x64       c18                           691
    x64       c28                           541
    x64       c29                           948
    x64       c38                           120
    x64       c55                           146
    x64       c64                           928
    x64       c70                           281
    x65       obj1                            1
    x65       c12                           281
    x65       c63                           532
    x65       c66                           757
    x66       obj1                            1
    x66       c6                            940
    x66       c8                            985
    x66       c21                           173
    x66       c35                           290
    x66       c39                           729
    x66       c53                           108
    x67       obj1                            1
    x67       c22                           126
    x67       c49                           244
    x67       c56                           151
    x68       obj1                            1
    x68       c3                            458
    x68       c8                            668
    x68       c9                            711
    x68       c11                           741
    x68       c22                           808
    x68       c43                           525
    x68       c52                           631
    x68       c54                           481
    x68       c62                           113
    x68       c69                           708
    x69       obj1                            1
    x69       c3                            334
    x69       c17                           517
    x69       c24                           881
    x69       c45                           655
    x69       c57                           498
    x69       c63                           755
    x69       c66                           384
    x70       obj1                            1
    x70       c1                            310
    x70       c26                           642
    x70       c30                           653
    x70       c40                           134
    x70       c43                           961
    x70       c63                           228
    x70       c66                           975
    MARK0001  'MARKER'                 'INTEND'
RHS
    rhs       c1                           2095
    rhs       c2                           1424
    rhs       c3                           2965
    rhs       c4                           2113
    rhs       c5                           1477
    rhs       c6                           2142
    rhs       c7                           2235
    rhs       c8                           2290
    rhs       c9                           1354
    rhs       c10                          2128
    rhs       c11                          2083
    rhs       c12                          1394
    rhs       c13                          2213
    rhs       c14                          1403
    rhs       c15                          1311
    rhs       c16                          1078
    rhs       c17                          3144
    rhs       c18                          1493
    rhs       c19                          1624
    rhs       c20                          1100
    rhs       c21                          1329
    rhs       c22                          1753
    rhs       c23                          2601
    rhs       c24                          2452
    rhs       c25                          1779
    rhs       c26                          1135
    rhs       c27                          2070
    rhs       c28                          1609
    rhs       c29                          2063
    rhs       c30                          1606
    rhs       c31                          1378
    rhs       c32                          1759
    rhs       c33                          1887
    rhs       c34                           849
    rhs       c35                          2291
    rhs       c36                          1280
    rhs       c37                          2509
    rhs       c38                          2943
    rhs       c39                          2101
    rhs       c40                          1832
    rhs       c41                          2329
    rhs       c42                           914
    rhs       c43                          2048
    rhs       c44                          1338
    rhs       c45                          2122
    rhs       c46                           985
    rhs       c47                          1826
    rhs       c48                          1416
    rhs       c49                          1551
    rhs       c50                          2812
    rhs       c51                          1896
    rhs       c52                          2033
    rhs       c53                          2263
    rhs       c54                          1456
    rhs       c55                          1431
    rhs       c56                           919
    rhs       c57                          1941
    rhs       c58                          1883
    rhs       c59                          2012
    rhs       c60                          1726
    rhs       c61                          2956
    rhs       c62                          3227
    rhs       c63                          1182
    rhs       c64                          3111
    rhs       c65                          1495
    rhs       c66                          2048
    rhs       c67                          1078
    rhs       c68                          1420
    rhs       c69                          2645
    rhs       c70                           843
BOUNDS
 LI bnd       x1        0
 LI bnd       x2        0
 LI bnd       x3        0
 LI bnd       x4        0
 LI bnd       x5        0
 LI bnd       x6        0
 LI bnd       x7        0
 LI bnd       x8        0
 LI bnd       x9        0
 LI bnd       x10       0
 LI bnd       x11       0
 LI bnd       x12       0
 LI bnd       x13       0
 LI bnd       x14       0
 LI bnd       x15       0
 LI bnd       x16       0
 LI bnd       x17       0
 LI bnd       x18       0
 LI bnd       x19       0
 LI bnd       x20       0
 LI bnd       x21       0
 LI bnd       x22       0
 LI bnd       x23       0
 LI bnd       x24       0
 LI bnd       x25       0
 LI bnd       x26       0
 LI bnd       x27       0
 LI bnd       x28       0
 LI bnd       x29       0
 LI bnd       x30       0
 LI bnd       x31       0
 LI bnd       x32       0
 LI bnd       x33       0
 LI bnd       x34       0
 LI bnd       x35       0
 LI bnd       x36       0
 LI bnd       x37       0
 LI bnd       x38       0
 LI bnd       x39       0
 LI bnd       x40       0
 LI bnd       x41       0
 LI bnd       x42       0
 LI bnd       x43       0
 LI bnd       x44       0
 LI bnd       x45       0
 LI bnd       x46       0
 LI bnd       x47       0
 LI bnd       x48       0
 LI bnd       x49       0
 LI bnd       x50       0
 LI bnd       x51       0
 LI bnd       x52       0
 LI bnd       x53       0
 LI bnd       x54       0
 LI bnd       x55       0
 LI bnd       x56       0
 LI bnd       x57       0
 LI bnd       x58       0
 LI bnd       x59       0
 LI bnd       x60       0
 LI bnd       x61       0
 LI bnd       x62       0
 LI bnd       x63       0
 LI bnd       x64       0
 LI bnd       x65       0
 LI bnd       x66       0
 LI bnd       x67       0
 LI bnd       x68       0
 LI bnd       x69       0
 LI bnd       x70       0
ENDATA
